NAME: bip_20_7
TYPE: TSP
COMMENT: bip_20_7
DIMENSION: 20
EDGE_WEIGHT_TYPE: EUC_2D
NODE_COORD_SECTION
1 78 32
2 44 77
3 77 60
4 74 49
5 33 41
6 80 23
7 48 20
8 74 15
9 43 95
10 78 42
11 463 404
12 476 421
13 463 482
14 405 401
15 480 452
16 488 478
17 444 432
18 469 497
19 408 438
20 464 428
